data;
param nombreJob := 5;
param nombreRessource := 3;
param duree := 1 3 2 6 3 6 4 9 5 10;
param capaciteRessource := 1 7 2 11 3 15;
param besoinRessource : 1 2 3 :=
                    1   4 6 2
                    2   1 7 7
                    3   4 8 5
                    4   2 1 4
                    5   2 3 1;
end;

